62      4       
16      19      18      16      
0       0       0       0       0       3       2       3       4       
10      0       8       0       0       1       5       
9       0       0       0       3       3       10      12      13      
4       0       0       9       0       2       6       30      
6       0       5       0       0       3       7       8       21      
7       0       1       0       0       1       38      
7       0       0       2       0       3       9       11      16      
5       0       0       0       6       1       14      
1       0       6       0       0       2       25      35      
7       0       0       6       0       1       35      
3       1       0       0       0       3       31      44      54      
2       1       0       0       0       1       55      
3       0       9       0       0       3       20      26      36      
10      0       6       0       0       2       15      17      
3       0       0       3       0       2       22      33      
5       0       2       0       0       2       23      46      
9       0       0       8       0       1       18      
9       0       0       1       0       2       19      24      
8       9       0       0       0       1       23      
7       0       4       0       0       3       28      32      57      
3       0       3       0       0       3       29      39      45      
3       0       2       0       0       1       32      
7       0       2       0       0       3       34      48      50      
4       9       0       0       0       2       27      42      
7       0       9       0       0       3       41      49      61      
3       0       4       0       0       1       47      
10      0       0       9       0       1       43      
10      0       2       0       0       1       33      
5       0       0       1       0       2       37      60      
1       10      0       0       0       1       54      
9       3       0       0       0       1       52      
7       0       0       0       4       2       46      55      
9       0       0       8       0       1       51      
4       0       8       0       0       2       43      53      
8       0       0       0       7       1       51      
9       0       0       0       5       1       47      
10      2       0       0       0       1       41      
10      1       0       0       0       3       40      42      46      
6       0       0       0       1       1       54      
8       4       0       0       0       1       56      
5       5       0       0       0       1       52      
9       0       9       0       0       1       58      
10      0       0       4       0       1       55      
8       0       1       0       0       1       53      
1       0       0       2       0       1       56      
1       0       9       0       0       1       48      
6       0       3       0       0       1       48      
1       0       0       0       4       1       61      
6       0       7       0       0       1       57      
1       6       0       0       0       1       53      
1       0       0       0       4       1       61      
7       0       0       0       10      1       57      
9       6       0       0       0       1       59      
9       0       0       0       6       1       60      
8       0       0       0       10      1       56      
10      5       0       0       0       1       58      
3       0       7       0       0       1       59      
1       0       0       1       0       1       59      
5       0       0       3       0       1       62      
4       0       0       6       0       1       62      
6       10      0       0       0       1       62      
0       0       0       0       0       0       